n = 30
Q1 = [0 5 0 0 40 0 0 10 50 0 0 48 0 0 48 0 0 0 0 0 30 0 0 0 0 0 0 0 0 10; 0 0 40 0 0 50 0 0 0 0 6 0 0 20 0 0 27 0 0 0 0 0 0 0 0 0 0 0 0 0; 0 0 0 0 0 0 0 0 0 0 13 17 40 0 0 0 0 0 0 0 0 0 29 44 0 0 0 0 13 0; 0 0 0 0 31 0 0 37 17 43 0 0 19 0 0 8 47 46 0 44 17 0 0 0 0 29 0 0 0 0; 0 0 0 0 0 18 17 0 0 0 44 37 34 0 0 34 0 0 42 0 35 0 20 0 0 0 0 0 0 0; 0 0 0 0 0 0 0 0 0 0 35 0 0 43 0 0 12 50 41 0 10 0 0 0 0 16 43 0 24 0; 0 0 0 0 0 0 0 0 0 0 0 0 0 15 0 0 15 0 27 11 0 0 0 0 0 6 0 0 0 0; 0 0 0 0 0 0 0 0 5 0 0 0 0 0 0 35 0 42 37 0 0 0 0 16 31 0 40 0 22 0; 0 0 0 0 0 0 0 0 0 30 0 0 25 0 16 0 0 0 0 7 0 0 0 43 0 17 0 0 0 0; 0 0 0 0 0 0 0 0 0 0 0 0 50 0 0 0 35 0 0 46 12 0 0 0 0 0 0 0 42 0; 0 0 0 0 0 0 0 0 0 0 0 0 36 0 0 0 38 0 0 0 0 0 7 49 28 0 0 0 0 45; 0 0 0 0 0 0 0 0 0 0 0 0 0 0 29 0 0 33 0 0 40 20 10 6 0 0 0 0 0 0; 0 0 0 0 0 0 0 0 0 0 0 0 0 0 17 0 0 0 0 0 0 18 0 0 43 0 0 0 0 0; 0 0 0 0 0 0 0 0 0 0 0 0 0 0 0 0 0 0 33 0 36 10 0 8 0 24 0 0 0 0; 0 0 0 0 0 0 0 0 0 0 0 0 0 0 0 0 0 0 0 0 0 0 0 0 23 0 0 0 0 17; 0 0 0 0 0 0 0 0 0 0 0 0 0 0 0 0 0 0 43 29 0 36 0 0 5 0 0 0 0 0; 0 0 0 0 0 0 0 0 0 0 0 0 0 0 0 0 0 0 0 0 0 34 0 0 0 0 0 0 5 0; 0 0 0 0 0 0 0 0 0 0 0 0 0 0 0 0 0 0 0 50 0 0 0 0 25 0 15 0 0 33; 0 0 0 0 0 0 0 0 0 0 0 0 0 0 0 0 0 0 0 0 0 0 0 37 0 0 0 0 27 0; 0 0 0 0 0 0 0 0 0 0 0 0 0 0 0 0 0 0 0 0 28 30 0 50 0 0 40 44 7 44; 0 0 0 0 0 0 0 0 0 0 0 0 0 0 0 0 0 0 0 0 0 0 0 0 27 0 15 0 15 0; 0 0 0 0 0 0 0 0 0 0 0 0 0 0 0 0 0 0 0 0 0 0 44 49 42 13 0 0 47 14; 0 0 0 0 0 0 0 0 0 0 0 0 0 0 0 0 0 0 0 0 0 0 0 0 44 0 40 49 17 0; 0 0 0 0 0 0 0 0 0 0 0 0 0 0 0 0 0 0 0 0 0 0 0 0 47 0 0 0 37 0; 0 0 0 0 0 0 0 0 0 0 0 0 0 0 0 0 0 0 0 0 0 0 0 0 0 0 6 0 0 0; 0 0 0 0 0 0 0 0 0 0 0 0 0 0 0 0 0 0 0 0 0 0 0 0 0 0 0 16 0 0; 0 0 0 0 0 0 0 0 0 0 0 0 0 0 0 0 0 0 0 0 0 0 0 0 0 0 0 0 0 35; 0 0 0 0 0 0 0 0 0 0 0 0 0 0 0 0 0 0 0 0 0 0 0 0 0 0 0 0 0 0; 0 0 0 0 0 0 0 0 0 0 0 0 0 0 0 0 0 0 0 0 0 0 0 0 0 0 0 0 0 50; 0 0 0 0 0 0 0 0 0 0 0 0 0 0 0 0 0 0 0 0 0 0 0 0 0 0 0 0 0 0]
Q2 = [0.0 45.0 0.0 0.0 10.0 0.0 0.0 48.0 0.0 0.0 0.0 2.0 0.0 0.0 0.0 0.0 0.0 0.0 0.0 0.0 7.0 0.0 0.0 0.0 0.0 0.0 0.0 0.0 0.0 48.0; 0.0 0.0 8.0 0.0 0.0 0.0 0.0 0.0 0.0 0.0 46.0 0.0 0.0 44.0 0.0 0.0 2.0 0.0 0.0 0.0 0.0 0.0 0.0 0.0 0.0 0.0 0.0 0.0 0.0 0.0; 0.0 0.0 0.0 0.0 0.0 0.0 0.0 0.0 0.0 0.0 48.0 46.0 8.0 0.0 0.0 0.0 0.0 0.0 0.0 0.0 0.0 0.0 0.0 0.0 0.0 0.0 0.0 0.0 40.0 0.0; 0.0 0.0 0.0 0.0 0.0 0.0 0.0 9.0 35.0 4.0 0.0 0.0 48.0 0.0 0.0 43.0 2.0 4.0 0.0 5.0 49.0 0.0 0.0 0.0 0.0 20.0 0.0 0.0 0.0 0.0; 0.0 0.0 0.0 0.0 0.0 39.0 40.0 0.0 0.0 0.0 4.0 8.0 3.0 0.0 0.0 16.0 0.0 0.0 7.0 0.0 14.0 0.0 32.0 0.0 0.0 0.0 0.0 0.0 0.0 0.0; 0.0 0.0 0.0 0.0 0.0 0.0 0.0 0.0 0.0 0.0 6.0 0.0 0.0 1.0 0.0 0.0 43.0 0.0 5.0 0.0 41.0 0.0 0.0 0.0 0.0 41.0 5.0 0.0 49.0 0.0; 0.0 0.0 0.0 0.0 0.0 0.0 0.0 0.0 0.0 0.0 0.0 0.0 0.0 38.0 0.0 0.0 35.0 0.0 19.0 41.0 0.0 0.0 0.0 0.0 0.0 45.0 0.0 0.0 0.0 0.0; 0.0 0.0 0.0 0.0 0.0 0.0 0.0 0.0 50.0 0.0 0.0 0.0 0.0 0.0 0.0 0.0 0.0 5.0 13.0 0.0 0.0 0.0 0.0 42.0 19.0 0.0 5.0 0.0 49.0 0.0; 0.0 0.0 0.0 0.0 0.0 0.0 0.0 0.0 0.0 6.0 0.0 0.0 16.0 0.0 36.0 0.0 0.0 0.0 0.0 46.0 0.0 0.0 0.0 4.0 0.0 34.0 0.0 0.0 0.0 0.0; 0.0 0.0 0.0 0.0 0.0 0.0 0.0 0.0 0.0 0.0 0.0 0.0 0.0 0.0 0.0 0.0 13.0 0.0 0.0 1.0 50.0 0.0 0.0 0.0 0.0 0.0 0.0 0.0 8.0 0.0; 0.0 0.0 0.0 0.0 0.0 0.0 0.0 0.0 0.0 0.0 0.0 0.0 12.0 0.0 0.0 0.0 0.0 0.0 0.0 0.0 0.0 0.0 49.0 1.0 22.0 0.0 0.0 0.0 0.0 3.0; 0.0 0.0 0.0 0.0 0.0 0.0 0.0 0.0 0.0 0.0 0.0 0.0 0.0 0.0 4.0 0.0 0.0 6.0 0.0 0.0 8.0 40.0 45.0 47.0 0.0 0.0 0.0 0.0 0.0 0.0; 0.0 0.0 0.0 0.0 0.0 0.0 0.0 0.0 0.0 0.0 0.0 0.0 0.0 0.0 39.0 0.0 0.0 0.0 0.0 0.0 0.0 36.0 0.0 0.0 7.0 0.0 0.0 0.0 0.0 0.0; 0.0 0.0 0.0 0.0 0.0 0.0 0.0 0.0 0.0 0.0 0.0 0.0 0.0 0.0 0.0 0.0 0.0 0.0 5.0 0.0 4.0 49.0 0.0 44.0 0.0 28.0 0.0 0.0 0.0 0.0; 0.0 0.0 0.0 0.0 0.0 0.0 0.0 0.0 0.0 0.0 0.0 0.0 0.0 0.0 0.0 0.0 0.0 0.0 0.0 0.0 0.0 0.0 0.0 0.0 31.0 0.0 0.0 0.0 0.0 50.0; 0.0 0.0 0.0 0.0 0.0 0.0 0.0 0.0 0.0 0.0 0.0 0.0 0.0 0.0 0.0 0.0 0.0 0.0 4.0 18.0 0.0 1.0 0.0 0.0 47.0 0.0 0.0 0.0 0.0 0.0; 0.0 0.0 0.0 0.0 0.0 0.0 0.0 0.0 0.0 0.0 0.0 0.0 0.0 0.0 0.0 0.0 0.0 0.0 0.0 0.0 0.0 8.0 0.0 0.0 0.0 0.0 0.0 0.0 47.0 0.0; 0.0 0.0 0.0 0.0 0.0 0.0 0.0 0.0 0.0 0.0 0.0 0.0 0.0 0.0 0.0 0.0 0.0 0.0 0.0 0.0 0.0 0.0 0.0 0.0 2.0 0.0 49.0 0.0 0.0 17.0; 0.0 0.0 0.0 0.0 0.0 0.0 0.0 0.0 0.0 0.0 0.0 0.0 0.0 0.0 0.0 0.0 0.0 0.0 0.0 0.0 0.0 0.0 0.0 10.0 0.0 0.0 0.0 0.0 1.0 0.0; 0.0 0.0 0.0 0.0 0.0 0.0 0.0 0.0 0.0 0.0 0.0 0.0 0.0 0.0 0.0 0.0 0.0 0.0 0.0 0.0 22.0 16.0 0.0 0.0 0.0 0.0 6.0 3.0 50.0 4.0; 0.0 0.0 0.0 0.0 0.0 0.0 0.0 0.0 0.0 0.0 0.0 0.0 0.0 0.0 0.0 0.0 0.0 0.0 0.0 0.0 0.0 0.0 0.0 0.0 21.0 0.0 48.0 0.0 40.0 0.0; 0.0 0.0 0.0 0.0 0.0 0.0 0.0 0.0 0.0 0.0 0.0 0.0 0.0 0.0 0.0 0.0 0.0 0.0 0.0 0.0 0.0 0.0 2.0 1.0 0.0 38.0 0.0 0.0 3.0 47.0; 0.0 0.0 0.0 0.0 0.0 0.0 0.0 0.0 0.0 0.0 0.0 0.0 0.0 0.0 0.0 0.0 0.0 0.0 0.0 0.0 0.0 0.0 0.0 0.0 4.0 0.0 2.0 0.0 48.0 0.0; 0.0 0.0 0.0 0.0 0.0 0.0 0.0 0.0 0.0 0.0 0.0 0.0 0.0 0.0 0.0 0.0 0.0 0.0 0.0 0.0 0.0 0.0 0.0 0.0 3.0 0.0 0.0 0.0 4.0 0.0; 0.0 0.0 0.0 0.0 0.0 0.0 0.0 0.0 0.0 0.0 0.0 0.0 0.0 0.0 0.0 0.0 0.0 0.0 0.0 0.0 0.0 0.0 0.0 0.0 0.0 0.0 48.0 0.0 0.0 0.0; 0.0 0.0 0.0 0.0 0.0 0.0 0.0 0.0 0.0 0.0 0.0 0.0 0.0 0.0 0.0 0.0 0.0 0.0 0.0 0.0 0.0 0.0 0.0 0.0 0.0 0.0 0.0 46.0 0.0 0.0; 0.0 0.0 0.0 0.0 0.0 0.0 0.0 0.0 0.0 0.0 0.0 0.0 0.0 0.0 0.0 0.0 0.0 0.0 0.0 0.0 0.0 0.0 0.0 0.0 0.0 0.0 0.0 0.0 0.0 1.0; 0.0 0.0 0.0 0.0 0.0 0.0 0.0 0.0 0.0 0.0 0.0 0.0 0.0 0.0 0.0 0.0 0.0 0.0 0.0 0.0 0.0 0.0 0.0 0.0 0.0 0.0 0.0 0.0 0.0 0.0; 0.0 0.0 0.0 0.0 0.0 0.0 0.0 0.0 0.0 0.0 0.0 0.0 0.0 0.0 0.0 0.0 0.0 0.0 0.0 0.0 0.0 0.0 0.0 0.0 0.0 0.0 0.0 0.0 0.0 0.0; 0.0 0.0 0.0 0.0 0.0 0.0 0.0 0.0 0.0 0.0 0.0 0.0 0.0 0.0 0.0 0.0 0.0 0.0 0.0 0.0 0.0 0.0 0.0 0.0 0.0 0.0 0.0 0.0 0.0 0.0]
Q3 = [0 10 73 73 12 73 73 11 17 73 73 13 73 73 22 73 73 73 73 73 27 73 73 73 73 73 73 73 73 2; 0 0 11 73 73 12 73 73 73 73 2 73 73 8 73 73 71 73 73 73 73 73 73 73 73 73 73 73 73 73; 0 0 0 73 73 73 73 73 73 73 6 8 4 73 73 73 73 73 73 73 73 73 45 12 73 73 73 73 6 73; 0 0 0 0 50 73 73 26 16 18 73 73 5 73 73 2 19 6 73 15 1 73 73 73 73 8 73 73 73 73; 0 0 0 0 0 13 1 73 73 73 25 12 30 73 73 8 73 73 5 73 16 73 15 73 73 73 73 73 73 73; 0 0 0 0 0 0 73 73 73 73 23 73 73 25 73 73 17 18 23 73 16 73 73 73 73 0 23 73 0 73; 0 0 0 0 0 0 0 73 73 73 73 73 73 8 73 73 5 73 4 19 73 73 73 73 73 12 73 73 73 73; 0 0 0 0 0 0 0 0 8 73 73 73 73 73 73 70 73 22 15 73 73 73 73 8 19 73 1 73 2 73; 0 0 0 0 0 0 0 0 0 45 73 73 8 73 6 73 73 73 73 18 73 73 73 10 73 9 73 73 73 73; 0 0 0 0 0 0 0 0 0 0 73 73 17 73 73 73 20 73 73 5 7 73 73 73 73 73 73 73 18 73; 0 0 0 0 0 0 0 0 0 0 0 73 9 73 73 73 27 73 73 73 73 73 14 7 13 73 73 73 73 16; 0 0 0 0 0 0 0 0 0 0 0 0 73 73 69 73 73 22 73 73 12 4 7 3 73 73 73 73 73 73; 0 0 0 0 0 0 0 0 0 0 0 0 0 73 14 73 73 73 73 73 73 4 73 73 0 73 73 73 73 73; 0 0 0 0 0 0 0 0 0 0 0 0 0 0 73 73 73 73 13 73 12 5 73 19 73 21 73 73 73 73; 0 0 0 0 0 0 0 0 0 0 0 0 0 0 0 73 73 73 73 73 73 73 73 73 15 73 73 73 73 5; 0 0 0 0 0 0 0 0 0 0 0 0 0 0 0 0 73 73 8 3 73 9 73 73 17 73 73 73 73 73; 0 0 0 0 0 0 0 0 0 0 0 0 0 0 0 0 0 73 73 73 73 12 73 73 73 73 73 73 19 73; 0 0 0 0 0 0 0 0 0 0 0 0 0 0 0 0 0 0 73 16 73 73 73 73 51 73 7 73 73 22; 0 0 0 0 0 0 0 0 0 0 0 0 0 0 0 0 0 0 0 73 73 73 73 18 73 73 73 73 62 73; 0 0 0 0 0 0 0 0 0 0 0 0 0 0 0 0 0 0 0 0 21 24 73 14 73 73 19 26 11 24; 0 0 0 0 0 0 0 0 0 0 0 0 0 0 0 0 0 0 0 0 0 73 73 73 0 73 0 73 7 73; 0 0 0 0 0 0 0 0 0 0 0 0 0 0 0 0 0 0 0 0 0 0 20 3 25 14 73 73 11 1; 0 0 0 0 0 0 0 0 0 0 0 0 0 0 0 0 0 0 0 0 0 0 0 73 5 73 6 23 5 73; 0 0 0 0 0 0 0 0 0 0 0 0 0 0 0 0 0 0 0 0 0 0 0 0 8 73 73 73 8 73; 0 0 0 0 0 0 0 0 0 0 0 0 0 0 0 0 0 0 0 0 0 0 0 0 0 73 3 73 73 73; 0 0 0 0 0 0 0 0 0 0 0 0 0 0 0 0 0 0 0 0 0 0 0 0 0 0 73 6 73 73; 0 0 0 0 0 0 0 0 0 0 0 0 0 0 0 0 0 0 0 0 0 0 0 0 0 0 0 73 73 72; 0 0 0 0 0 0 0 0 0 0 0 0 0 0 0 0 0 0 0 0 0 0 0 0 0 0 0 0 73 73; 0 0 0 0 0 0 0 0 0 0 0 0 0 0 0 0 0 0 0 0 0 0 0 0 0 0 0 0 0 0; 0 0 0 0 0 0 0 0 0 0 0 0 0 0 0 0 0 0 0 0 0 0 0 0 0 0 0 0 0 0]
